(declare-const c_0 Real)
(declare-const c_1 Real)
(declare-const c_2 Real)
(declare-const c_3 Real)
(declare-const c_4 Real)
(declare-const c_5 Real)
(declare-const c_6 Real)
(declare-const c_7 Real)
(declare-const c_8 Real)
(declare-const c_9 Real)
(declare-const c_10 Real)
(declare-const c_11 Real)
(declare-const s_0 Real)
(declare-const s_1 Real)
(declare-const s_2 Real)
(declare-const s_3 Real)
(declare-const s_4 Real)
(declare-const s_5 Real)
(declare-const s_6 Real)
(declare-const s_7 Real)
(declare-const s_8 Real)
(declare-const s_9 Real)
(declare-const s_10 Real)
(declare-const s_11 Real)
(assert (forall ((maxId Real) (tmp Real) (id Real) ) (=> (and (>= (+ (* 1024 1) (* 1 maxId ) ) 0) (>= (+ (* 1023 1) (* (- 1) maxId ) ) 0) (>= (+ (* 1024 1) (* 1 tmp ) ) 0) (>= (+ (* 1023 1) (* (- 1) tmp ) ) 0) (>= (+ (* 1024 1) (* 1 id ) ) 0) (>= (+ (* 1023 1) (* (- 1) id ) ) 0) ) (>= (+ (* 1 id s_1 ) (* 1 maxId s_2 ) (* 1 s_0 ) (* 1 s_3 tmp ) ) 0) )))
(assert (forall ((maxId Real) (tmp Real) (id Real) ) (=> (and (>= (+ (* 1024 1) (* 1 maxId ) ) 0) (>= (+ (* 1023 1) (* (- 1) maxId ) ) 0) (>= (+ (* 1024 1) (* 1 tmp ) ) 0) (>= (+ (* 1023 1) (* (- 1) tmp ) ) 0) (>= (+ (* 1024 1) (* 1 id ) ) 0) (>= (+ (* 1023 1) (* (- 1) id ) ) 0) ) (>= (+ (* 1 c_0 ) (* 1 c_1 id ) (* 1 c_2 maxId ) (* 1 c_3 tmp ) ) 0) )))
(assert (forall ((maxId Real) (tmp Real) (id Real) ) (=> (and (>= (* 1 id ) 0) (>= (+ (* (- 1) 1) (* (- 1) id ) (* 1 maxId ) ) 0) (>= (+ (* 1024 1) (* 1 maxId ) ) 0) (>= (+ (* 1024 1) (* 1 tmp ) ) 0) (>= (+ (* 1024 1) (* 1 id ) ) 0) (>= (+ (* 1023 1) (* (- 1) id ) ) 0) (>= (+ (* 1023 1) (* (- 1) tmp ) ) 0) (>= (+ (* 1023 1) (* (- 1) maxId ) ) 0) (>= (+ (* 1 id s_1 ) (* 1 maxId s_2 ) (* 1 s_0 ) (* 1 s_3 tmp ) ) 0) ) (>= (+ (* 1 id s_5 ) (* 1 id s_7 ) (* 1 maxId s_6 ) (* 1 s_4 ) (* 1 s_7 ) ) 0) )))
(assert (forall ((maxId Real) (tmp Real) (id Real) ) (=> (and (>= (* 1 id ) 0) (>= (+ (* (- 1) 1) (* (- 1) id ) (* 1 maxId ) ) 0) (>= (+ (* 1024 1) (* 1 maxId ) ) 0) (>= (+ (* 1024 1) (* 1 tmp ) ) 0) (>= (+ (* 1024 1) (* 1 id ) ) 0) (>= (+ (* 1023 1) (* (- 1) id ) ) 0) (>= (+ (* 1023 1) (* (- 1) tmp ) ) 0) (>= (+ (* 1023 1) (* (- 1) maxId ) ) 0) (>= (+ (* 1 id s_1 ) (* 1 maxId s_2 ) (* 1 s_0 ) (* 1 s_3 tmp ) ) 0) ) (>= (+ (* 1 c_4 ) (* 1 c_5 id ) (* 1 c_6 maxId ) (* 1 c_7 ) (* 1 c_7 id ) ) 0) )))
(assert (forall ((maxId Real) (tmp Real) (id Real) ) (=> (and (>= (* 1 id ) 0) (>= (+ (* (- 1) 1) (* (- 1) id ) (* 1 maxId ) ) 0) (>= (+ (* 1024 1) (* 1 maxId ) ) 0) (>= (+ (* 1024 1) (* 1 tmp ) ) 0) (>= (+ (* 1024 1) (* 1 id ) ) 0) (>= (+ (* 1023 1) (* (- 1) id ) ) 0) (>= (+ (* 1023 1) (* (- 1) tmp ) ) 0) (>= (+ (* 1023 1) (* (- 1) maxId ) ) 0) (>= (+ (* 1 id s_1 ) (* 1 maxId s_2 ) (* 1 s_0 ) (* 1 s_3 tmp ) ) 0) ) (>= (+ (* (- 1) 1) (* 1 c_0 ) (* 1 c_1 id ) (* 1 c_2 maxId ) (* 1 c_3 tmp ) (* (- 1) c_4 ) (* (- 1) c_5 id ) (* (- 1) c_6 maxId ) (* (- 1) c_7 ) (* (- 1) c_7 id ) ) 0) )))
(assert (forall ((maxId Real) (tmp Real) (id Real) ) (=> (and (>= (+ (* (- 1) 1) (* (- 1) id ) ) 0) (>= (+ (* 1024 1) (* 1 maxId ) ) 0) (>= (+ (* 1024 1) (* 1 tmp ) ) 0) (>= (+ (* 1024 1) (* 1 id ) ) 0) (>= (+ (* 1023 1) (* (- 1) id ) ) 0) (>= (+ (* 1023 1) (* (- 1) tmp ) ) 0) (>= (+ (* 1023 1) (* (- 1) maxId ) ) 0) (>= (+ (* 1 id s_1 ) (* 1 maxId s_2 ) (* 1 s_0 ) (* 1 s_3 tmp ) ) 0) ) (>= (+ (* 1 id s_9 ) (* 1 maxId s_10 ) (* 1 s_11 tmp ) (* 1 s_8 ) ) 0) )))
(assert (forall ((maxId Real) (tmp Real) (id Real) ) (=> (and (>= (+ (* (- 1) 1) (* (- 1) id ) ) 0) (>= (+ (* 1024 1) (* 1 maxId ) ) 0) (>= (+ (* 1024 1) (* 1 tmp ) ) 0) (>= (+ (* 1024 1) (* 1 id ) ) 0) (>= (+ (* 1023 1) (* (- 1) id ) ) 0) (>= (+ (* 1023 1) (* (- 1) tmp ) ) 0) (>= (+ (* 1023 1) (* (- 1) maxId ) ) 0) (>= (+ (* 1 id s_1 ) (* 1 maxId s_2 ) (* 1 s_0 ) (* 1 s_3 tmp ) ) 0) ) (>= (+ (* 1 c_10 maxId ) (* 1 c_11 tmp ) (* 1 c_8 ) (* 1 c_9 id ) ) 0) )))
(assert (forall ((maxId Real) (tmp Real) (id Real) ) (=> (and (>= (+ (* 1 id ) (* (- 1) maxId ) ) 0) (>= (+ (* 1024 1) (* 1 maxId ) ) 0) (>= (+ (* 1024 1) (* 1 tmp ) ) 0) (>= (+ (* 1024 1) (* 1 id ) ) 0) (>= (+ (* 1023 1) (* (- 1) id ) ) 0) (>= (+ (* 1023 1) (* (- 1) tmp ) ) 0) (>= (+ (* 1023 1) (* (- 1) maxId ) ) 0) (>= (+ (* 1 id s_1 ) (* 1 maxId s_2 ) (* 1 s_0 ) (* 1 s_3 tmp ) ) 0) ) (>= (+ (* 1 id s_9 ) (* 1 maxId s_10 ) (* 1 s_11 tmp ) (* 1 s_8 ) ) 0) )))
(assert (forall ((maxId Real) (tmp Real) (id Real) ) (=> (and (>= (+ (* 1 id ) (* (- 1) maxId ) ) 0) (>= (+ (* 1024 1) (* 1 maxId ) ) 0) (>= (+ (* 1024 1) (* 1 tmp ) ) 0) (>= (+ (* 1024 1) (* 1 id ) ) 0) (>= (+ (* 1023 1) (* (- 1) id ) ) 0) (>= (+ (* 1023 1) (* (- 1) tmp ) ) 0) (>= (+ (* 1023 1) (* (- 1) maxId ) ) 0) (>= (+ (* 1 id s_1 ) (* 1 maxId s_2 ) (* 1 s_0 ) (* 1 s_3 tmp ) ) 0) ) (>= (+ (* 1 c_10 maxId ) (* 1 c_11 tmp ) (* 1 c_8 ) (* 1 c_9 id ) ) 0) )))
(assert (forall ((maxId Real) (tmp Real) (id Real) ) (=> (and (>= (+ (* 1 maxId ) (* (- 1) tmp ) ) 0) (>= (+ (* (- 1) 1) (* 1 id ) (* (- 1) tmp ) ) 0) (>= (* 1 id ) 0) (>= (+ (* (- 1) 1) (* (- 1) id ) (* 1 maxId ) ) 0) (>= (+ (* 1023 1) (* (- 1) maxId ) ) 0) (>= (+ (* 1 id s_5 ) (* 1 maxId s_6 ) (* 1 s_4 ) (* 1 s_7 tmp ) ) 0) ) (>= (+ (* 1 id s_5 ) (* 1 maxId s_6 ) (* 1 s_4 ) (* 1 s_7 ) (* 1 s_7 tmp ) ) 0) )))
(assert (forall ((maxId Real) (tmp Real) (id Real) ) (=> (and (>= (+ (* 1 maxId ) (* (- 1) tmp ) ) 0) (>= (+ (* (- 1) 1) (* 1 id ) (* (- 1) tmp ) ) 0) (>= (* 1 id ) 0) (>= (+ (* (- 1) 1) (* (- 1) id ) (* 1 maxId ) ) 0) (>= (+ (* 1023 1) (* (- 1) maxId ) ) 0) (>= (+ (* 1 id s_5 ) (* 1 maxId s_6 ) (* 1 s_4 ) (* 1 s_7 tmp ) ) 0) ) (>= (+ (* 1 c_4 ) (* 1 c_5 id ) (* 1 c_6 maxId ) (* 1 c_7 ) (* 1 c_7 tmp ) ) 0) )))
(assert (forall ((maxId Real) (tmp Real) (id Real) ) (=> (and (>= (+ (* 1 maxId ) (* (- 1) tmp ) ) 0) (>= (+ (* (- 1) 1) (* 1 id ) (* (- 1) tmp ) ) 0) (>= (* 1 id ) 0) (>= (+ (* (- 1) 1) (* (- 1) id ) (* 1 maxId ) ) 0) (>= (+ (* 1023 1) (* (- 1) maxId ) ) 0) (>= (+ (* 1 id s_5 ) (* 1 maxId s_6 ) (* 1 s_4 ) (* 1 s_7 tmp ) ) 0) ) (>= (+ (* (- 1) 1) (* (- 1) c_7 ) ) 0) )))
(assert (forall ((maxId Real) (tmp Real) (id Real) ) (=> (and (>= (+ (* (- 1) 1) (* (- 1) maxId ) (* 1 tmp ) ) 0) (>= (+ (* (- 1) 1) (* 1 id ) (* (- 1) tmp ) ) 0) (>= (* 1 id ) 0) (>= (+ (* (- 1) 1) (* (- 1) id ) (* 1 maxId ) ) 0) (>= (+ (* 1023 1) (* (- 1) maxId ) ) 0) (>= (+ (* 1 id s_5 ) (* 1 maxId s_6 ) (* 1 s_4 ) (* 1 s_7 tmp ) ) 0) ) (>= (+ (* 1 id s_5 ) (* 1 maxId s_6 ) (* 1 s_4 ) ) 0) )))
(assert (forall ((maxId Real) (tmp Real) (id Real) ) (=> (and (>= (+ (* (- 1) 1) (* (- 1) maxId ) (* 1 tmp ) ) 0) (>= (+ (* (- 1) 1) (* 1 id ) (* (- 1) tmp ) ) 0) (>= (* 1 id ) 0) (>= (+ (* (- 1) 1) (* (- 1) id ) (* 1 maxId ) ) 0) (>= (+ (* 1023 1) (* (- 1) maxId ) ) 0) (>= (+ (* 1 id s_5 ) (* 1 maxId s_6 ) (* 1 s_4 ) (* 1 s_7 tmp ) ) 0) ) (>= (+ (* 1 c_4 ) (* 1 c_5 id ) (* 1 c_6 maxId ) ) 0) )))
(assert (forall ((maxId Real) (tmp Real) (id Real) ) (=> (and (>= (+ (* (- 1) 1) (* (- 1) maxId ) (* 1 tmp ) ) 0) (>= (+ (* (- 1) 1) (* 1 id ) (* (- 1) tmp ) ) 0) (>= (* 1 id ) 0) (>= (+ (* (- 1) 1) (* (- 1) id ) (* 1 maxId ) ) 0) (>= (+ (* 1023 1) (* (- 1) maxId ) ) 0) (>= (+ (* 1 id s_5 ) (* 1 maxId s_6 ) (* 1 s_4 ) (* 1 s_7 tmp ) ) 0) ) (>= (+ (* (- 1) 1) (* 1 c_7 tmp ) ) 0) )))
(assert (forall ((maxId Real) (tmp Real) (id Real) ) (=> (and (>= (+ (* 1 maxId ) (* (- 1) tmp ) ) 0) (>= (+ (* (- 1) 1) (* (- 1) id ) (* 1 tmp ) ) 0) (>= (* 1 id ) 0) (>= (+ (* (- 1) 1) (* (- 1) id ) (* 1 maxId ) ) 0) (>= (+ (* 1023 1) (* (- 1) maxId ) ) 0) (>= (+ (* 1 id s_5 ) (* 1 maxId s_6 ) (* 1 s_4 ) (* 1 s_7 tmp ) ) 0) ) (>= (+ (* 1 id s_5 ) (* 1 maxId s_6 ) (* 1 s_4 ) (* 1 s_7 ) (* 1 s_7 tmp ) ) 0) )))
(assert (forall ((maxId Real) (tmp Real) (id Real) ) (=> (and (>= (+ (* 1 maxId ) (* (- 1) tmp ) ) 0) (>= (+ (* (- 1) 1) (* (- 1) id ) (* 1 tmp ) ) 0) (>= (* 1 id ) 0) (>= (+ (* (- 1) 1) (* (- 1) id ) (* 1 maxId ) ) 0) (>= (+ (* 1023 1) (* (- 1) maxId ) ) 0) (>= (+ (* 1 id s_5 ) (* 1 maxId s_6 ) (* 1 s_4 ) (* 1 s_7 tmp ) ) 0) ) (>= (+ (* 1 c_4 ) (* 1 c_5 id ) (* 1 c_6 maxId ) (* 1 c_7 ) (* 1 c_7 tmp ) ) 0) )))
(assert (forall ((maxId Real) (tmp Real) (id Real) ) (=> (and (>= (+ (* 1 maxId ) (* (- 1) tmp ) ) 0) (>= (+ (* (- 1) 1) (* (- 1) id ) (* 1 tmp ) ) 0) (>= (* 1 id ) 0) (>= (+ (* (- 1) 1) (* (- 1) id ) (* 1 maxId ) ) 0) (>= (+ (* 1023 1) (* (- 1) maxId ) ) 0) (>= (+ (* 1 id s_5 ) (* 1 maxId s_6 ) (* 1 s_4 ) (* 1 s_7 tmp ) ) 0) ) (>= (+ (* (- 1) 1) (* (- 1) c_7 ) ) 0) )))
(assert (forall ((maxId Real) (tmp Real) (id Real) ) (=> (and (>= (+ (* (- 1) 1) (* (- 1) maxId ) (* 1 tmp ) ) 0) (>= (+ (* (- 1) 1) (* (- 1) id ) (* 1 tmp ) ) 0) (>= (* 1 id ) 0) (>= (+ (* (- 1) 1) (* (- 1) id ) (* 1 maxId ) ) 0) (>= (+ (* 1023 1) (* (- 1) maxId ) ) 0) (>= (+ (* 1 id s_5 ) (* 1 maxId s_6 ) (* 1 s_4 ) (* 1 s_7 tmp ) ) 0) ) (>= (+ (* 1 id s_5 ) (* 1 maxId s_6 ) (* 1 s_4 ) ) 0) )))
(assert (forall ((maxId Real) (tmp Real) (id Real) ) (=> (and (>= (+ (* (- 1) 1) (* (- 1) maxId ) (* 1 tmp ) ) 0) (>= (+ (* (- 1) 1) (* (- 1) id ) (* 1 tmp ) ) 0) (>= (* 1 id ) 0) (>= (+ (* (- 1) 1) (* (- 1) id ) (* 1 maxId ) ) 0) (>= (+ (* 1023 1) (* (- 1) maxId ) ) 0) (>= (+ (* 1 id s_5 ) (* 1 maxId s_6 ) (* 1 s_4 ) (* 1 s_7 tmp ) ) 0) ) (>= (+ (* 1 c_4 ) (* 1 c_5 id ) (* 1 c_6 maxId ) ) 0) )))
(assert (forall ((maxId Real) (tmp Real) (id Real) ) (=> (and (>= (+ (* (- 1) 1) (* (- 1) maxId ) (* 1 tmp ) ) 0) (>= (+ (* (- 1) 1) (* (- 1) id ) (* 1 tmp ) ) 0) (>= (* 1 id ) 0) (>= (+ (* (- 1) 1) (* (- 1) id ) (* 1 maxId ) ) 0) (>= (+ (* 1023 1) (* (- 1) maxId ) ) 0) (>= (+ (* 1 id s_5 ) (* 1 maxId s_6 ) (* 1 s_4 ) (* 1 s_7 tmp ) ) 0) ) (>= (+ (* (- 1) 1) (* 1 c_7 tmp ) ) 0) )))
(assert (forall ((maxId Real) (tmp Real) (id Real) ) (=> (and (>= (+ (* (- 1) id ) (* 1 tmp ) ) 0) (>= (+ (* 1 id ) (* (- 1) tmp ) ) 0) (>= (* 1 id ) 0) (>= (+ (* (- 1) 1) (* (- 1) id ) (* 1 maxId ) ) 0) (>= (+ (* 1023 1) (* (- 1) maxId ) ) 0) (>= (+ (* 1 id s_5 ) (* 1 maxId s_6 ) (* 1 s_4 ) (* 1 s_7 tmp ) ) 0) ) (>= (+ (* 1 id s_9 ) (* 1 maxId s_10 ) (* 1 s_11 tmp ) (* 1 s_8 ) ) 0) )))
(assert (forall ((maxId Real) (tmp Real) (id Real) ) (=> (and (>= (+ (* (- 1) id ) (* 1 tmp ) ) 0) (>= (+ (* 1 id ) (* (- 1) tmp ) ) 0) (>= (* 1 id ) 0) (>= (+ (* (- 1) 1) (* (- 1) id ) (* 1 maxId ) ) 0) (>= (+ (* 1023 1) (* (- 1) maxId ) ) 0) (>= (+ (* 1 id s_5 ) (* 1 maxId s_6 ) (* 1 s_4 ) (* 1 s_7 tmp ) ) 0) ) (>= (+ (* 1 c_10 maxId ) (* 1 c_11 tmp ) (* 1 c_8 ) (* 1 c_9 id ) ) 0) )))
(assert (forall ((maxId Real) (tmp Real) (id Real) ) (=> (and (>= (* 1 id ) 0) (>= (+ (* (- 1) 1) (* (- 1) id ) (* 1 maxId ) ) 0) (>= (+ (* 1023 1) (* (- 1) maxId ) ) 0) (>= (+ (* 1 id s_5 ) (* 1 maxId s_6 ) (* 1 s_4 ) (* 1 s_7 tmp ) ) 0) ) (>= (+ (* 1 id s_9 ) (* 1 maxId s_10 ) (* 1 s_11 tmp ) (* 1 s_8 ) ) 0) )))
(assert (forall ((maxId Real) (tmp Real) (id Real) ) (=> (and (>= (* 1 id ) 0) (>= (+ (* (- 1) 1) (* (- 1) id ) (* 1 maxId ) ) 0) (>= (+ (* 1023 1) (* (- 1) maxId ) ) 0) (>= (+ (* 1 id s_5 ) (* 1 maxId s_6 ) (* 1 s_4 ) (* 1 s_7 tmp ) ) 0) ) (>= (+ (* 1 c_10 maxId ) (* 1 c_11 tmp ) (* 1 c_8 ) (* 1 c_9 id ) ) 0) )))
(assert (forall ((maxId Real) (tmp Real) (id Real) ) (=> (and (>= (+ (* (- 1) id ) (* 1 tmp ) ) 0) (>= (* 1 id ) 0) (>= (+ (* (- 1) 1) (* (- 1) id ) (* 1 maxId ) ) 0) (>= (+ (* 1023 1) (* (- 1) maxId ) ) 0) (>= (+ (* 1 id s_5 ) (* 1 maxId s_6 ) (* 1 s_4 ) (* 1 s_7 tmp ) ) 0) ) (>= (+ (* 1 id s_9 ) (* 1 maxId s_10 ) (* 1 s_11 tmp ) (* 1 s_8 ) ) 0) )))
(assert (forall ((maxId Real) (tmp Real) (id Real) ) (=> (and (>= (+ (* (- 1) id ) (* 1 tmp ) ) 0) (>= (* 1 id ) 0) (>= (+ (* (- 1) 1) (* (- 1) id ) (* 1 maxId ) ) 0) (>= (+ (* 1023 1) (* (- 1) maxId ) ) 0) (>= (+ (* 1 id s_5 ) (* 1 maxId s_6 ) (* 1 s_4 ) (* 1 s_7 tmp ) ) 0) ) (>= (+ (* 1 c_10 maxId ) (* 1 c_11 tmp ) (* 1 c_8 ) (* 1 c_9 id ) ) 0) )))
(assert (forall ((maxId Real) (tmp Real) (id Real) ) (=> (and (>= (* 1 id ) 0) (>= (+ (* (- 1) 1) (* (- 1) id ) (* 1 maxId ) ) 0) (>= (+ (* 1023 1) (* (- 1) maxId ) ) 0) (>= (+ (* 1 id s_5 ) (* 1 maxId s_6 ) (* 1 s_4 ) (* 1 s_7 tmp ) ) 0) ) (>= (+ (* 1 id s_9 ) (* 1 maxId s_10 ) (* 1 s_11 tmp ) (* 1 s_8 ) ) 0) )))
(assert (forall ((maxId Real) (tmp Real) (id Real) ) (=> (and (>= (* 1 id ) 0) (>= (+ (* (- 1) 1) (* (- 1) id ) (* 1 maxId ) ) 0) (>= (+ (* 1023 1) (* (- 1) maxId ) ) 0) (>= (+ (* 1 id s_5 ) (* 1 maxId s_6 ) (* 1 s_4 ) (* 1 s_7 tmp ) ) 0) ) (>= (+ (* 1 c_10 maxId ) (* 1 c_11 tmp ) (* 1 c_8 ) (* 1 c_9 id ) ) 0) )))

(check-sat)
(get-model)
